(set-option :print-success false)
(set-logic QF_UF)
(declare-sort x95 0)
(declare-sort x110 0)
(declare-fun x24 () x110)
(declare-fun x53 () x110)
(declare-fun x68 (x110 x110) x110)
(declare-fun x111 () x110)
(declare-fun x23 () x110)
(declare-fun x114 () x110)
(assert (not (and (and (= x24 (x68 x111 x114)) (= (x68 x24 x114) x23)) (= x53 (x68 x23 x114)))))
(assert (not (and (= (x68 x53 x24) x111) (and (= (x68 x23 x24) x114) (= (x68 x114 x24) x53)))))
(assert (not (and (and (= x111 (x68 x24 x53)) (= (x68 x23 x53) x24)) (= x114 (x68 x111 x53)))))
(assert (not (and (and (= x111 (x68 x23 x114)) (= x24 (x68 x111 x114))) (= x53 (x68 x24 x114)))))
(assert (not (and (and (= (x68 x114 x111) x53) (= x114 (x68 x23 x111))) (= x24 (x68 x53 x111)))))
(assert (not (and (= x114 (x68 x24 x23)) (and (= (x68 x53 x23) x24) (= x53 (x68 x111 x23))))))
(assert (not (and (and (= (x68 x53 x23) x111) (= x53 (x68 x24 x23))) (= x114 (x68 x111 x23)))))
(assert (or (or (= x114 (x68 x114 x114)) (or (or (= x23 (x68 x23 x23)) (= (x68 x111 x111) x111)) (= x24 (x68 x24 x24)))) (= x53 (x68 x53 x53))))
(assert (not (and (= x53 (x68 x23 x24)) (and (= (x68 x114 x24) x111) (= (x68 x111 x24) x23)))))
(assert (not (and (= x114 (x68 x53 x24)) (and (= (x68 x111 x24) x23) (= (x68 x23 x24) x53)))))
(assert (not (and (and (= (x68 x114 x53) x111) (= x114 (x68 x23 x53))) (= x24 (x68 x111 x53)))))
(assert (not (and (and (= x53 (x68 x111 x114)) (= (x68 x53 x114) x24)) (= x23 (x68 x24 x114)))))
(assert (let ((x83 (x68 x53 x23)) (x91 (x68 x111 x23)) (x131 (x68 x53 x24)) (x103 (x68 x24 x53)) (x48 (x68 x24 x24)) (x135 (x68 x23 x114)) (x157 (x68 x24 x111)) (x11 (x68 x23 x23)) (x109 (x68 x23 x24)) (x46 (x68 x111 x114)) (x37 (x68 x114 x114)) (x124 (x68 x111 x53)) (x39 (x68 x24 x23)) (x60 (x68 x111 x24)) (x77 (x68 x23 x53)) (x35 (x68 x23 x111)) (x27 (x68 x114 x23)) (x4 (x68 x53 x114)) (x122 (x68 x24 x114)) (x56 (x68 x114 x111)) (x125 (x68 x111 x111)) (x105 (x68 x53 x111)) (x72 (x68 x114 x53)) (x8 (x68 x114 x24)) (x18 (x68 x53 x53))) (let ((x32 (= x125 x24)) (x85 (= x11 x53)) (x146 (= x105 x23)) (x101 (= x24 x157)) (x5 (= x8 x53)) (x34 (= x56 x53)) (x19 (= x35 x53)) (x81 (= x53 x83)) (x147 (= x24 x77)) (x36 (= x109 x24)) (x90 (= x35 x24)) (x145 (= x111 x18)) (x107 (= x48 x111)) (x108 (= x125 x111)) (x106 (= x37 x24)) (x40 (= x114 x48)) (x28 (= x157 x23)) (x86 (= x60 x53)) (x151 (= x27 x114)) (x67 (= x53 x109)) (x141 (= x124 x53)) (x52 (= x111 x56)) (x64 (= x114 x103)) (x96 (= x56 x24)) (x29 (= x53 x18)) (x119 (= x114 x122)) (x25 (= x37 x53)) (x92 (= x23 x48)) (x38 (= x105 x24)) (x61 (= x105 x53)) (x93 (= x4 x114)) (x58 (= x24 x83)) (x133 (= x27 x23)) (x76 (= x91 x24)) (x17 (= x111 x83)) (x94 (= x122 x111)) (x158 (= x114 x124)) (x117 (= x4 x23)) (x140 (= x114 x83)) (x88 (= x131 x24)) (x150 (= x53 x91)) (x30 (= x53 x48)) (x97 (= x24 x8)) (x130 (= x24 x18)) (x104 (= x27 x53)) (x112 (= x91 x23)) (x7 (= x111 x135)) (x42 (= x72 x53)) (x137 (= x77 x53)) (x73 (= x46 x111)) (x127 (= x24 x48)) (x59 (= x60 x24)) (x143 (= x111 x39)) (x132 (= x135 x114)) (x20 (= x111 x103)) (x113 (= x77 x23)) (x16 (= x111 x8)) (x70 (= x24 x72)) (x14 (= x114 x109)) (x82 (= x24 x11)) (x54 (= x24 x124)) (x78 (= x111 x157)) (x74 (= x46 x114)) (x99 (= x23 x39)) (x6 (= x23 x109)) (x22 (= x56 x23)) (x45 (= x114 x60)) (x21 (= x4 x53)) (x144 (= x23 x83)) (x115 (= x114 x37)) (x148 (= x72 x111)) (x126 (= x53 x131)) (x153 (= x135 x53)) (x138 (= x46 x23)) (x13 (= x111 x77)) (x87 (= x46 x24)) (x62 (= x109 x111)) (x156 (= x114 x131)) (x12 (= x122 x24)) (x65 (= x131 x111)) (x10 (= x35 x23)) (x49 (= x60 x111)) (x129 (= x23 x103)) (x139 (= x124 x23)) (x134 (= x111 x124)) (x118 (= x125 x23)) (x55 (= x103 x24)) (x41 (= x23 x18)) (x2 (= x11 x23)) (x123 (= x39 x53)) (x31 (= x114 x35)) (x50 (= x125 x114)) (x84 (= x114 x77)) (x69 (= x72 x114)) (x63 (= x114 x91)) (x121 (= x23 x60)) (x89 (= x111 x91)) (x47 (= x4 x111)) (x9 (= x53 x46)) (x15 (= x39 x24)) (x152 (= x11 x111)) (x57 (= x53 x125)) (x154 (= x23 x72)) (x51 (= x53 x103)) (x102 (= x23 x122)) (x3 (= x37 x111)) (x44 (= x23 x131)) (x98 (= x114 x8)) (x100 (= x111 x35)) (x79 (= x27 x24)) (x66 (= x53 x122)) (x116 (= x114 x18)) (x26 (= x11 x114)) (x1 (= x114 x157)) (x128 (= x157 x53)) (x33 (= x135 x23)) (x136 (= x23 x37)) (x71 (= x24 x135)) (x75 (= x8 x23)) (x149 (= x111 x105)) (x120 (= x39 x114)) (x155 (= x111 x27)) (x43 (= x24 x4)) (x80 (= x56 x114)) (x142 (= x105 x114))) (and (and (or (or (and x116 x116) (or (or (or (and x142 x158) (and x140 x84)) (and x156 x64)) (and x93 x69))) (or (or (or (or (or (or (and x45 x1) (or (and x31 x63) (and x50 x50))) (and x80 x74)) (and x158 x142)) (or (or (or (or (and x26 x26) (and x63 x31)) (and x14 x120)) (and x151 x132)) (and x140 x84))) (or (or (or (and x40 x40) (or (and x14 x120) (and x45 x1))) (and x119 x98)) (and x156 x64))) (or (and x93 x69) (or (and x115 x115) (or (or (and x74 x80) (and x151 x132)) (and x98 x119)))))) (and (and (or (or (or (or (or (or (and x155 x7) (and x52 x73)) (and x16 x94)) (and x3 x3)) (and x47 x148)) (or (or (or (or (or (and x49 x78) (or (and x108 x108) (and x100 x89))) (and x52 x73)) (and x134 x149)) (or (or (or (or (and x89 x100) (and x152 x152)) (and x143 x62)) (and x7 x155)) (and x17 x13))) (or (or (and x16 x94) (or (or (and x143 x62) (and x49 x78)) (and x107 x107))) (and x20 x65)))) (or (and x145 x145) (or (and x47 x148) (or (or (and x149 x134) (and x17 x13)) (and x20 x65))))) (or (or (and x41 x41) (or (and x117 x154) (or (or (and x113 x144) (and x139 x146)) (and x129 x44)))) (or (or (and x117 x154) (or (and x136 x136) (or (and x75 x102) (or (and x22 x138) (and x33 x133))))) (or (or (or (and x113 x144) (or (or (and x6 x99) (or (and x112 x10) (and x2 x2))) (and x133 x33))) (or (and x139 x146) (or (and x138 x22) (or (or (and x112 x10) (and x118 x118)) (and x28 x121))))) (or (or (or (and x92 x92) (or (and x6 x99) (and x28 x121))) (and x102 x75)) (and x129 x44)))))) (or (or (or (and x43 x70) (or (and x106 x106) (or (or (and x96 x87) (and x71 x79)) (and x97 x12)))) (or (or (or (or (or (or (and x90 x76) (and x82 x82)) (and x36 x15)) (and x71 x79)) (and x58 x147)) (or (and x54 x38) (or (and x87 x96) (or (and x59 x101) (or (and x32 x32) (and x90 x76)))))) (or (and x55 x88) (or (or (or (and x59 x101) (and x15 x36)) (and x127 x127)) (and x12 x97))))) (or (and x130 x130) (or (or (or (and x147 x58) (and x38 x54)) (and x55 x88)) (and x43 x70)))))) (or (or (or (or (or (or (or (or (and x150 x19) (and x57 x57)) (and x128 x86)) (and x9 x34)) (and x61 x141)) (or (and x137 x81) (or (and x104 x153) (or (or (and x150 x19) (and x85 x85)) (and x67 x123))))) (or (and x126 x51) (or (and x66 x5) (or (or (and x67 x123) (and x128 x86)) (and x30 x30))))) (or (or (or (and x66 x5) (or (and x153 x104) (and x34 x9))) (and x25 x25)) (and x21 x42))) (or (and x29 x29) (or (and x21 x42) (or (or (and x81 x137) (and x141 x61)) (and x51 x126)))))))))
(assert (not (and (= (x68 x24 x114) x111) (and (= x23 (x68 x53 x114)) (= x24 (x68 x23 x114))))))
(assert (not (and (and (= x23 (x68 x114 x111)) (= (x68 x53 x111) x114)) (= x24 (x68 x23 x111)))))
(assert (not (and (and (= x114 (x68 x53 x24)) (= x111 (x68 x114 x24))) (= x23 (x68 x111 x24)))))
(assert (let ((x118 (x68 x114 x114)) (x99 (x68 x53 x53)) (x10 (x68 x24 x24)) (x112 (x68 x111 x111)) (x2 (x68 x23 x23))) (or (and (not (= x53 x99)) (and (not (= x118 x53)) (and (and (not (= x2 x53)) (not (= x53 x112))) (not (= x53 x10))))) (or (or (and (not (= x24 x99)) (and (and (and (not (= x24 x2)) (not (= x112 x24))) (not (= x24 x10))) (not (= x24 x118)))) (or (and (not (= x99 x111)) (and (and (not (= x10 x111)) (and (not (= x112 x111)) (not (= x111 x2)))) (not (= x118 x111)))) (and (and (and (not (= x23 x10)) (and (not (= x23 x2)) (not (= x112 x23)))) (not (= x118 x23))) (not (= x23 x99))))) (and (not (= x114 x99)) (and (not (= x118 x114)) (and (not (= x114 x10)) (and (not (= x2 x114)) (not (= x114 x112))))))))))
(assert (not (and (= (x68 x23 x114) x24) (and (= x23 (x68 x111 x114)) (= (x68 x53 x114) x111)))))
(assert (let ((x2 (x68 x23 x23)) (x75 (x68 x114 x24)) (x92 (x68 x24 x24)) (x41 (x68 x53 x53)) (x22 (x68 x114 x111)) (x138 (x68 x111 x114)) (x118 (x68 x111 x111)) (x112 (x68 x111 x23)) (x102 (x68 x24 x114)) (x99 (x68 x24 x23)) (x136 (x68 x114 x114)) (x113 (x68 x23 x53)) (x28 (x68 x24 x111)) (x154 (x68 x114 x53)) (x133 (x68 x114 x23)) (x146 (x68 x53 x111)) (x117 (x68 x53 x114)) (x33 (x68 x23 x114)) (x10 (x68 x23 x111)) (x121 (x68 x111 x24)) (x139 (x68 x111 x53)) (x144 (x68 x53 x23)) (x129 (x68 x24 x53)) (x44 (x68 x53 x24)) (x6 (x68 x23 x24))) (and (and (and (or (or (or (not (= x92 x92)) (or (not (= x6 x99)) (not (= x28 x121)))) (not (= x102 x75))) (not (= x44 x129))) (and (or (not (= x144 x113)) (or (not (= x33 x133)) (or (or (not (= x2 x2)) (not (= x112 x10))) (not (= x6 x99))))) (or (or (not (= x138 x22)) (or (or (not (= x118 x118)) (not (= x112 x10))) (not (= x121 x28)))) (not (= x146 x139))))) (or (or (or (or (not (= x33 x133)) (not (= x22 x138))) (not (= x75 x102))) (not (= x136 x136))) (not (= x117 x154)))) (or (not (= x41 x41)) (or (or (not (= x44 x129)) (or (not (= x139 x146)) (not (= x144 x113)))) (not (= x117 x154)))))))
(assert (not (and (= x114 (x68 x23 x24)) (and (= (x68 x53 x24) x111) (= x23 (x68 x111 x24))))))
(assert (not (and (= x53 (x68 x111 x24)) (and (= x114 (x68 x23 x24)) (= (x68 x114 x24) x111)))))
(assert (not (and (and (= x24 (x68 x53 x111)) (= (x68 x114 x111) x53)) (= (x68 x24 x111) x23))))
(assert (not (and (= x53 (x68 x114 x24)) (and (= (x68 x111 x24) x114) (= (x68 x23 x24) x111)))))
(assert (let ((x33 (x68 x23 x24)) (x92 (x68 x114 x111)) (x99 (x68 x53 x23)) (x41 (x68 x53 x53)) (x139 (x68 x53 x114)) (x136 (x68 x23 x114)) (x121 (x68 x24 x111)) (x44 (x68 x23 x53)) (x10 (x68 x24 x23)) (x146 (x68 x114 x114)) (x138 (x68 x24 x24)) (x102 (x68 x53 x24)) (x117 (x68 x24 x53)) (x113 (x68 x24 x114)) (x129 (x68 x111 x53)) (x75 (x68 x114 x24)) (x28 (x68 x111 x111)) (x118 (x68 x114 x23)) (x144 (x68 x111 x114)) (x2 (x68 x23 x23)) (x133 (x68 x53 x111)) (x112 (x68 x111 x23)) (x22 (x68 x111 x24)) (x154 (x68 x114 x53)) (x6 (x68 x23 x111))) (and (and (and (and (and (not (= x139 x113)) (and (and (not (= x139 x144)) (and (not (= x144 x146)) (and (and (not (= x136 x139)) (and (not (= x136 x146)) (and (not (= x144 x136)) (not (= x136 x113))))) (not (= x144 x113))))) (not (= x113 x146)))) (not (= x146 x139))) (and (and (and (and (and (and (not (= x75 x22)) (and (and (not (= x33 x102)) (and (not (= x33 x75)) (and (not (= x138 x33)) (not (= x33 x22))))) (not (= x138 x22)))) (not (= x22 x102))) (not (= x138 x75))) (not (= x102 x138))) (not (= x75 x102))) (and (and (and (not (= x10 x99)) (and (not (= x118 x10)) (and (not (= x99 x112)) (and (not (= x118 x112)) (and (and (and (and (not (= x2 x112)) (not (= x2 x10))) (not (= x2 x118))) (not (= x99 x2))) (not (= x10 x112))))))) (not (= x118 x99))) (and (and (not (= x133 x121)) (and (and (not (= x133 x28)) (and (not (= x28 x92)) (and (not (= x28 x121)) (and (not (= x133 x6)) (and (not (= x92 x6)) (and (not (= x28 x6)) (not (= x6 x121)))))))) (not (= x92 x121)))) (not (= x133 x92)))))) (and (and (not (= x41 x117)) (and (and (and (not (= x154 x129)) (and (and (not (= x44 x41)) (and (not (= x44 x154)) (and (not (= x44 x117)) (not (= x44 x129))))) (not (= x129 x117)))) (not (= x41 x129))) (not (= x154 x117)))) (not (= x154 x41)))) (and (and (and (and (and (and (and (and (not (= x121 x113)) (and (not (= x121 x138)) (and (not (= x117 x10)) (and (and (not (= x121 x10)) (not (= x138 x10))) (not (= x10 x113)))))) (not (= x121 x117))) (not (= x138 x113))) (not (= x117 x138))) (not (= x113 x117))) (and (and (and (not (= x22 x129)) (and (not (= x144 x22)) (and (and (not (= x28 x144)) (and (not (= x22 x28)) (and (and (and (not (= x28 x112)) (not (= x22 x112))) (not (= x112 x144))) (not (= x112 x129))))) (not (= x129 x28))))) (not (= x144 x129))) (and (not (= x44 x136)) (and (and (and (not (= x6 x44)) (and (and (not (= x33 x6)) (and (and (and (not (= x6 x2)) (not (= x2 x33))) (not (= x2 x136))) (not (= x44 x2)))) (not (= x136 x6)))) (not (= x136 x33))) (not (= x44 x33)))))) (and (and (not (= x154 x75)) (and (not (= x75 x146)) (and (not (= x92 x154)) (and (and (not (= x92 x75)) (and (and (and (not (= x118 x92)) (not (= x75 x118))) (not (= x146 x118))) (not (= x118 x154)))) (not (= x92 x146)))))) (not (= x154 x146)))) (and (and (not (= x102 x41)) (and (not (= x139 x102)) (and (not (= x133 x41)) (and (not (= x133 x139)) (and (and (and (and (not (= x102 x99)) (not (= x99 x133))) (not (= x99 x139))) (not (= x99 x41))) (not (= x102 x133))))))) (not (= x139 x41)))))))
(assert (not (and (and (= (x68 x53 x111) x114) (= x53 (x68 x23 x111))) (= (x68 x114 x111) x24))))
(assert (not (and (and (= x53 (x68 x114 x23)) (= (x68 x53 x23) x24)) (= (x68 x24 x23) x111))))
(assert (not (and (= x23 (x68 x53 x111)) (and (= (x68 x114 x111) x24) (= x53 (x68 x24 x111))))))
(assert (not (and (= (x68 x23 x53) x111) (and (= (x68 x114 x53) x24) (= x23 (x68 x24 x53))))))
(assert (not (and (and (= x114 (x68 x23 x53)) (= (x68 x24 x53) x23)) (= x111 (x68 x114 x53)))))
(assert (not (and (= (x68 x53 x23) x114) (and (= x53 (x68 x24 x23)) (= (x68 x111 x23) x24)))))
(assert (and (not (= x114 x53)) (and (not (= x53 x24)) (and (not (= x24 x114)) (and (not (= x111 x53)) (and (not (= x114 x111)) (and (not (= x111 x24)) (and (and (and (not (= x23 x24)) (not (= x23 x111))) (not (= x114 x23))) (not (= x53 x23))))))))))
(assert (not (and (= x23 (x68 x114 x53)) (and (= x114 (x68 x111 x53)) (= x111 (x68 x24 x53))))))
(assert (not (and (and (= (x68 x111 x114) x53) (= x111 (x68 x23 x114))) (= (x68 x53 x114) x24))))
(assert (not (and (= x111 (x68 x23 x114)) (and (= x23 (x68 x53 x114)) (= x53 (x68 x24 x114))))))
(assert (not (and (= (x68 x23 x111) x53) (and (= (x68 x114 x111) x24) (= (x68 x24 x111) x23)))))
(assert (not (and (= x23 (x68 x53 x24)) (and (= x111 (x68 x114 x24)) (= x53 (x68 x111 x24))))))
(assert (let ((x129 (x68 x111 x53)) (x152 (x68 x53 x111)) (x59 (x68 x53 x114)) (x84 (x68 x53 x53)) (x99 (x68 x23 x114)) (x6 (x68 x23 x53)) (x124 (x68 x24 x24)) (x92 (x68 x24 x23)) (x10 (x68 x23 x111)) (x139 (x68 x111 x24)) (x112 (x68 x23 x23)) (x44 (x68 x111 x114)) (x118 (x68 x23 x24)) (x133 (x68 x114 x23)) (x76 (x68 x114 x114)) (x90 (x68 x114 x53)) (x48 (x68 x114 x24)) (x107 (x68 x53 x24)) (x143 (x68 x24 x53)) (x121 (x68 x111 x23)) (x33 (x68 x53 x23)) (x11 (x68 x114 x111)) (x146 (x68 x111 x111)) (x105 (x68 x24 x114)) (x41 (x68 x24 x111))) (let ((x27 (= x114 x146)) (x31 (= x53 x105)) (x94 (= x114 x124)) (x83 (= x53 x10)) (x136 (= x10 x23)) (x81 (= x33 x53)) (x57 (= x129 x24)) (x60 (= x23 x139)) (x122 (= x92 x24)) (x149 (= x11 x23)) (x9 (= x129 x114)) (x93 (= x111 x84)) (x80 (= x23 x90)) (x123 (= x143 x24)) (x18 (= x133 x111)) (x16 (= x114 x139)) (x88 (= x114 x105)) (x104 (= x114 x107)) (x50 (= x53 x76)) (x67 (= x24 x90)) (x101 (= x111 x76)) (x49 (= x111 x124)) (x63 (= x53 x44)) (x5 (= x114 x143)) (x78 (= x139 x111)) (x36 (= x105 x111)) (x140 (= x111 x59)) (x158 (= x111 x129)) (x87 (= x44 x24)) (x154 (= x146 x111)) (x65 (= x99 x23)) (x132 (= x143 x23)) (x109 (= x24 x146)) (x54 (= x44 x114)) (x58 (= x11 x114)) (x34 (= x6 x114)) (x3 (= x41 x53)) (x134 (= x23 x48)) (x108 (= x118 x23)) (x115 (= x111 x107)) (x47 (= x105 x23)) (x64 (= x90 x111)) (x2 (= x23 x112)) (x119 (= x152 x111)) (x42 (= x90 x53)) (x142 (= x6 x111)) (x74 (= x23 x84)) (x100 (= x23 x92)) (x52 (= x114 x41)) (x137 (= x152 x53)) (x4 (= x139 x53)) (x156 (= x111 x143)) (x103 (= x24 x118)) (x17 (= x124 x53)) (x71 (= x24 x48)) (x12 (= x76 x24)) (x55 (= x114 x76)) (x102 (= x121 x23)) (x38 (= x114 x99)) (x97 (= x105 x24)) (x144 (= x146 x23)) (x1 (= x107 x23)) (x131 (= x139 x24)) (x98 (= x33 x111)) (x125 (= x41 x23)) (x91 (= x10 x24)) (x148 (= x23 x76)) (x79 (= x11 x24)) (x22 (= x112 x24)) (x51 (= x129 x53)) (x72 (= x118 x53)) (x25 (= x114 x84)) (x138 (= x114 x112)) (x96 (= x99 x24)) (x120 (= x23 x33)) (x106 (= x133 x114)) (x116 (= x24 x152)) (x45 (= x59 x23)) (x117 (= x111 x10)) (x20 (= x23 x44)) (x145 (= x11 x111)) (x147 (= x114 x48)) (x35 (= x24 x121)) (x127 (= x24 x133)) (x30 (= x152 x114)) (x130 (= x48 x53)) (x75 (= x53 x112)) (x14 (= x23 x152)) (x43 (= x53 x133)) (x150 (= x59 x24)) (x21 (= x53 x143)) (x86 (= x114 x33)) (x56 (= x111 x41)) (x19 (= x24 x6)) (x46 (= x92 x111)) (x157 (= x124 x23)) (x126 (= x6 x53)) (x62 (= x118 x111)) (x7 (= x92 x114)) (x28 (= x111 x112)) (x151 (= x129 x23)) (x73 (= x118 x114)) (x77 (= x53 x121)) (x40 (= x23 x6)) (x155 (= x124 x24)) (x70 (= x53 x11)) (x82 (= x111 x48)) (x32 (= x99 x111)) (x153 (= x59 x114)) (x29 (= x53 x84)) (x141 (= x53 x59)) (x128 (= x84 x24)) (x39 (= x114 x121)) (x69 (= x24 x33)) (x85 (= x24 x107)) (x66 (= x114 x90)) (x113 (= x111 x121)) (x8 (= x41 x24)) (x89 (= x146 x53)) (x61 (= x53 x107)) (x37 (= x92 x53)) (x13 (= x23 x133)) (x26 (= x99 x53)) (x15 (= x44 x111)) (x135 (= x10 x114))) (and (and (and (and (and (and (and (or (or (or x7 (or x39 x138)) x106) x86) (or (or (or x73 (or x135 x138)) x38) x34)) (and (and (or (or x96 (or (or x91 x22) x103)) x19) (or (or x127 (or (or x22 x35) x122)) x69)) (and (and (or x142 (or x32 (or (or x28 x117) x62))) (or (or (or (or x28 x113) x46) x18) x98)) (and (or (or x13 (or x100 (or x102 x2))) x120) (or (or x65 (or (or x136 x2) x108)) x40))))) (and (or (or (or x72 (or x75 x83)) x26) x126) (or (or x43 (or (or x77 x75) x37)) x81))) (and (and (or (or x63 (or x4 (or x89 x77))) x51) (or (or (or (or x83 x89) x3) x70) x137)) (and (and (and (or (or x79 (or (or x109 x91) x8)) x116) (or (or (or (or x109 x35) x131) x87) x57)) (and (and (or (or (or x125 (or x136 x144)) x149) x14) (or (or (or x60 (or x102 x144)) x20) x151)) (and (or x158 (or x15 (or x78 (or x154 x113)))) (or x119 (or (or x56 (or x154 x117)) x145))))) (and (or x9 (or x54 (or (or x39 x27) x16))) (or x30 (or (or (or x27 x135) x52) x58)))))) (and (and (or (or (or x17 (or x4 x72)) x130) x61) (or (or x31 (or (or x3 x37) x17)) x21)) (and (and (and (and (or (or x82 (or (or x62 x78) x49)) x115) (or (or (or x49 (or x46 x56)) x36) x156)) (and (or x1 (or (or (or x108 x60) x157) x134)) (or (or (or (or x125 x100) x157) x47) x132))) (and (or x123 (or (or (or x8 x122) x155) x97)) (or (or x71 (or (or x103 x131) x155)) x85))) (and (or (or (or (or x73 x16) x94) x147) x104) (or (or (or x94 (or x7 x52)) x88) x5))))) (and (and (or (or (or x130 (or x70 x43)) x50) x42) (or x141 (or x50 (or (or x26 x63) x31)))) (and (and (and (or x67 (or x12 (or x71 (or x79 x127)))) (or (or (or x97 (or x96 x87)) x12) x150)) (and (and (or x64 (or x101 (or (or x18 x145) x82))) (or (or x101 (or x36 (or x15 x32))) x140)) (and (or x80 (or x148 (or x134 (or x13 x149)))) (or x45 (or (or x47 (or x65 x20)) x148))))) (and (or (or (or x147 (or x58 x106)) x55) x66) (or x153 (or x55 (or x88 (or x38 x54)))))))) (and (and (or x29 (or (or (or x51 x126) x21) x42)) (or x29 (or x141 (or (or x81 x137) x61)))) (and (and (or (or (or (or x86 x30) x104) x153) x25) (or x25 (or x66 (or (or x34 x9) x5)))) (and (and (or x128 (or (or (or x57 x19) x123) x67)) (or (or (or (or x116 x69) x85) x150) x128)) (and (and (or x74 (or (or (or x40 x151) x132) x80)) (or x74 (or (or x1 (or x14 x120)) x45))) (and (or (or (or (or x158 x142) x156) x64) x93) (or (or x140 (or x115 (or x98 x119))) x93))))))))))
(assert (not (and (and (= x24 (x68 x111 x114)) (= (x68 x53 x114) x111)) (= (x68 x24 x114) x23))))
(assert (and (or (= x53 (x68 x53 (x68 x53 x53))) (or (= (x68 x53 (x68 x53 x114)) x114) (or (= x24 (x68 x53 (x68 x53 x24))) (or (= (x68 x53 (x68 x53 x23)) x23) (= (x68 x53 (x68 x53 x111)) x111))))) (and (and (and (or (= (x68 x23 (x68 x23 x53)) x53) (or (or (or (= (x68 x23 (x68 x23 x23)) x23) (= (x68 x23 (x68 x23 x111)) x111)) (= x24 (x68 x23 (x68 x23 x24)))) (= x114 (x68 x23 (x68 x23 x114))))) (or (or (= (x68 x111 (x68 x111 x114)) x114) (or (= x24 (x68 x111 (x68 x111 x24))) (or (= x23 (x68 x111 (x68 x111 x23))) (= x111 (x68 x111 (x68 x111 x111)))))) (= x53 (x68 x111 (x68 x111 x53))))) (or (or (or (or (= (x68 x24 (x68 x24 x111)) x111) (= (x68 x24 (x68 x24 x23)) x23)) (= (x68 x24 (x68 x24 x24)) x24)) (= x114 (x68 x24 (x68 x24 x114)))) (= x53 (x68 x24 (x68 x24 x53))))) (or (or (= x114 (x68 x114 (x68 x114 x114))) (or (or (= (x68 x114 (x68 x114 x23)) x23) (= x111 (x68 x114 (x68 x114 x111)))) (= x24 (x68 x114 (x68 x114 x24))))) (= x53 (x68 x114 (x68 x114 x53)))))))
(assert (not (and (= x23 (x68 x111 x114)) (and (= (x68 x24 x114) x111) (= x24 (x68 x53 x114))))))
(assert (not (and (= (x68 x23 x53) x24) (and (= x114 (x68 x111 x53)) (= x23 (x68 x114 x53))))))
(assert (not (and (= x53 (x68 x114 x23)) (and (= (x68 x111 x23) x24) (= x114 (x68 x24 x23))))))
(assert (not (and (= x111 (x68 x24 x53)) (and (= x114 (x68 x23 x53)) (= x24 (x68 x114 x53))))))
(assert (not (and (= x23 (x68 x111 x24)) (and (= x111 (x68 x53 x24)) (= (x68 x114 x24) x53)))))
(assert (not (and (= x24 (x68 x23 x111)) (and (= (x68 x53 x111) x23) (= x53 (x68 x114 x111))))))
(assert (not (and (= x24 (x68 x114 x53)) (and (= x114 (x68 x111 x53)) (= x111 (x68 x23 x53))))))
(assert (not (and (= x24 (x68 x114 x53)) (and (= (x68 x23 x53) x114) (= x23 (x68 x111 x53))))))
(assert (not (and (= (x68 x111 x53) x23) (and (= (x68 x24 x53) x111) (= x24 (x68 x114 x53))))))
(assert (not (and (and (= (x68 x111 x24) x53) (= (x68 x53 x24) x23)) (= x114 (x68 x23 x24)))))
(assert (not (and (and (= x53 (x68 x111 x24)) (= x111 (x68 x23 x24))) (= (x68 x53 x24) x114))))
(assert (not (and (and (= (x68 x111 x24) x114) (= x23 (x68 x114 x24))) (= (x68 x23 x24) x53))))
(assert (not (and (= (x68 x23 x53) x114) (and (= (x68 x111 x53) x23) (= x111 (x68 x24 x53))))))
(assert (not (and (and (= x24 (x68 x114 x23)) (= (x68 x24 x23) x111)) (= (x68 x111 x23) x53))))
(assert (not (and (and (= (x68 x23 x24) x53) (= (x68 x53 x24) x114)) (= (x68 x114 x24) x111))))
(assert (not (and (and (= (x68 x24 x114) x53) (= x111 (x68 x53 x114))) (= x23 (x68 x111 x114)))))
(assert (not (and (= x114 (x68 x111 x53)) (and (= x111 (x68 x23 x53)) (= (x68 x24 x53) x23)))))
(assert (let ((x22 (x68 x24 x111)) (x113 (x68 x114 x24)) (x121 (x68 x111 x24)) (x144 (x68 x114 x111)) (x139 (x68 x114 x53)) (x99 (x68 x23 x53)) (x133 (x68 x111 x53)) (x138 (x68 x24 x24)) (x44 (x68 x53 x23)) (x33 (x68 x24 x23)) (x118 (x68 x23 x114)) (x75 (x68 x24 x114)) (x146 (x68 x114 x114)) (x129 (x68 x53 x111)) (x136 (x68 x114 x23)) (x154 (x68 x53 x114)) (x102 (x68 x24 x53)) (x2 (x68 x23 x23)) (x6 (x68 x111 x23)) (x92 (x68 x111 x114)) (x117 (x68 x53 x24)) (x10 (x68 x23 x24)) (x28 (x68 x111 x111)) (x112 (x68 x23 x111)) (x41 (x68 x53 x53))) (and (and (and (and (and (and (and (and (or (or (or (= x2 x24) (or (= x2 x111) (= x2 x23))) (= x114 x2)) (= x2 x53)) (or (= x112 x53) (or (= x114 x112) (or (= x112 x24) (or (= x112 x23) (= x111 x112)))))) (or (or (or (= x10 x24) (or (= x10 x111) (= x23 x10))) (= x114 x10)) (= x53 x10))) (or (or (or (= x24 x118) (or (= x118 x23) (= x118 x111))) (= x118 x114)) (= x118 x53))) (or (= x99 x53) (or (or (= x24 x99) (or (= x111 x99) (= x23 x99))) (= x99 x114)))) (and (or (= x133 x53) (or (= x114 x133) (or (or (= x133 x111) (= x133 x23)) (= x24 x133)))) (and (and (or (or (= x114 x121) (or (= x24 x121) (or (= x121 x111) (= x23 x121)))) (= x53 x121)) (and (or (= x53 x28) (or (= x114 x28) (or (= x24 x28) (or (= x28 x23) (= x28 x111))))) (or (= x6 x53) (or (= x6 x114) (or (= x6 x24) (or (= x6 x23) (= x111 x6))))))) (or (or (= x114 x92) (or (= x24 x92) (or (= x111 x92) (= x23 x92)))) (= x92 x53))))) (and (or (or (or (= x24 x102) (or (= x23 x102) (= x102 x111))) (= x102 x114)) (= x53 x102)) (and (or (= x75 x53) (or (= x114 x75) (or (= x75 x24) (or (= x111 x75) (= x23 x75))))) (and (or (or (= x114 x138) (or (or (= x138 x111) (= x23 x138)) (= x138 x24))) (= x138 x53)) (and (or (or (or (or (= x22 x111) (= x22 x23)) (= x24 x22)) (= x22 x114)) (= x53 x22)) (or (= x53 x33) (or (or (= x33 x24) (or (= x111 x33) (= x33 x23))) (= x114 x33)))))))) (and (and (and (and (or (or (= x114 x144) (or (= x24 x144) (or (= x144 x23) (= x111 x144)))) (= x144 x53)) (or (or (= x114 x136) (or (= x136 x24) (or (= x136 x23) (= x136 x111)))) (= x53 x136))) (or (= x113 x53) (or (= x113 x114) (or (or (= x113 x111) (= x23 x113)) (= x24 x113))))) (or (= x146 x53) (or (or (or (= x146 x111) (= x146 x23)) (= x24 x146)) (= x146 x114)))) (or (= x139 x53) (or (or (= x24 x139) (or (= x139 x23) (= x111 x139))) (= x114 x139))))) (and (and (and (or (or (or (= x24 x117) (or (= x111 x117) (= x23 x117))) (= x114 x117)) (= x53 x117)) (and (or (or (= x114 x44) (or (= x44 x24) (or (= x44 x23) (= x44 x111)))) (= x53 x44)) (or (or (= x114 x129) (or (or (= x129 x23) (= x111 x129)) (= x24 x129))) (= x53 x129)))) (or (= x154 x53) (or (= x114 x154) (or (= x154 x24) (or (= x111 x154) (= x23 x154)))))) (or (= x41 x53) (or (or (or (= x111 x41) (= x41 x23)) (= x41 x24)) (= x114 x41)))))))
(assert (not (and (and (= x24 (x68 x114 x111)) (= (x68 x23 x111) x114)) (= x53 (x68 x24 x111)))))
(assert (not (and (and (= x53 (x68 x114 x24)) (= x114 (x68 x111 x24))) (= (x68 x53 x24) x23))))
(assert (not (and (and (= (x68 x24 x114) x23) (= x53 (x68 x23 x114))) (= (x68 x53 x114) x111))))
(assert (not (and (and (= x114 (x68 x24 x53)) (= (x68 x111 x53) x24)) (= x23 (x68 x114 x53)))))
(assert (not (and (and (= (x68 x111 x114) x53) (= x23 (x68 x53 x114))) (= x24 (x68 x23 x114)))))
(assert (not (and (and (= (x68 x23 x111) x24) (= x23 (x68 x114 x111))) (= x53 (x68 x24 x111)))))
(assert (not (and (= x111 (x68 x23 x114)) (and (= (x68 x24 x114) x23) (= (x68 x53 x114) x24)))))
(assert (not (and (and (= x53 (x68 x23 x24)) (= (x68 x114 x24) x23)) (= (x68 x53 x24) x111))))
(assert (not (and (= (x68 x111 x23) x24) (and (= (x68 x114 x23) x53) (= (x68 x53 x23) x111)))))
(assert (not (and (and (= x111 (x68 x114 x23)) (= (x68 x111 x23) x53)) (= x24 (x68 x53 x23)))))
(assert (not (and (= (x68 x111 x114) x53) (and (= (x68 x24 x114) x23) (= (x68 x23 x114) x111)))))
(assert (not (and (= x111 (x68 x114 x24)) (and (= (x68 x53 x24) x23) (= x114 (x68 x23 x24))))))
(assert (not (and (and (= (x68 x111 x24) x23) (= x114 (x68 x23 x24))) (= (x68 x114 x24) x53))))
(assert (not (and (= (x68 x114 x23) x111) (and (= (x68 x53 x23) x24) (= x114 (x68 x24 x23))))))
(assert (not (and (= (x68 x114 x111) x23) (and (= (x68 x24 x111) x53) (= (x68 x53 x111) x114)))))
(assert (and (and (and (or (= (x68 x53 (x68 x24 x53)) x24) (or (= x24 (x68 x114 (x68 x24 x114))) (or (or (= (x68 x23 (x68 x24 x23)) x24) (= (x68 x111 (x68 x24 x111)) x24)) (= x24 (x68 x24 (x68 x24 x24)))))) (and (or (or (or (= (x68 x24 (x68 x111 x24)) x111) (or (= (x68 x23 (x68 x111 x23)) x111) (= (x68 x111 (x68 x111 x111)) x111))) (= x111 (x68 x114 (x68 x111 x114)))) (= x111 (x68 x53 (x68 x111 x53)))) (or (= x23 (x68 x53 (x68 x23 x53))) (or (or (= (x68 x24 (x68 x23 x24)) x23) (or (= x23 (x68 x23 (x68 x23 x23))) (= x23 (x68 x111 (x68 x23 x111))))) (= (x68 x114 (x68 x23 x114)) x23))))) (or (or (= x114 (x68 x114 (x68 x114 x114))) (or (= x114 (x68 x24 (x68 x114 x24))) (or (= (x68 x111 (x68 x114 x111)) x114) (= x114 (x68 x23 (x68 x114 x23)))))) (= (x68 x53 (x68 x114 x53)) x114))) (or (= x53 (x68 x53 (x68 x53 x53))) (or (= (x68 x114 (x68 x53 x114)) x53) (or (or (= (x68 x111 (x68 x53 x111)) x53) (= x53 (x68 x23 (x68 x53 x23)))) (= (x68 x24 (x68 x53 x24)) x53))))))
(assert (not (and (and (= x111 (x68 x114 x53)) (= x23 (x68 x111 x53))) (= (x68 x23 x53) x24))))
(assert (not (and (and (= x23 (x68 x111 x114)) (= x111 (x68 x24 x114))) (= (x68 x23 x114) x53))))
(assert (not (and (= x23 (x68 x53 x111)) (and (= x53 (x68 x114 x111)) (= (x68 x24 x111) x114)))))
(assert (not (and (and (= (x68 x23 x24) x111) (= x23 (x68 x53 x24))) (= x114 (x68 x111 x24)))))
(assert (not (and (= x53 (x68 x111 x24)) (and (= (x68 x23 x24) x111) (= x23 (x68 x114 x24))))))
(assert (not (and (= (x68 x111 x53) x23) (and (= x114 (x68 x24 x53)) (= (x68 x114 x53) x111)))))
(assert (not (and (= (x68 x24 x53) x23) (and (= (x68 x111 x53) x24) (= x111 (x68 x114 x53))))))
(assert (not (and (= x24 (x68 x53 x114)) (and (= (x68 x111 x114) x23) (= (x68 x23 x114) x53)))))
(assert (not (and (and (= (x68 x111 x23) x114) (= (x68 x114 x23) x24)) (= x53 (x68 x24 x23)))))
(assert (not (and (= (x68 x53 x23) x24) (and (= x114 (x68 x111 x23)) (= (x68 x114 x23) x53)))))
(assert (not (and (= (x68 x111 x24) x114) (and (= (x68 x53 x24) x111) (= x53 (x68 x23 x24))))))
(assert (not (and (= x23 (x68 x24 x111)) (and (= x24 (x68 x114 x111)) (= x114 (x68 x53 x111))))))
(assert (not (and (and (= x24 (x68 x23 x53)) (= x23 (x68 x111 x53))) (= (x68 x24 x53) x114))))
(assert (not (and (= x111 (x68 x53 x114)) (and (= (x68 x23 x114) x24) (= (x68 x24 x114) x53)))))
(assert (not (and (and (= x53 (x68 x24 x114)) (= (x68 x111 x114) x24)) (= x23 (x68 x53 x114)))))
(assert (not (and (= x111 (x68 x53 x23)) (and (= (x68 x114 x23) x24) (= x53 (x68 x24 x23))))))
(assert (not (and (= x111 (x68 x24 x23)) (and (= (x68 x53 x23) x114) (= x24 (x68 x114 x23))))))
(assert (not (and (= (x68 x24 x53) x111) (and (= (x68 x114 x53) x23) (= (x68 x23 x53) x24)))))
(assert (not (and (and (= (x68 x23 x111) x24) (= x23 (x68 x53 x111))) (= (x68 x24 x111) x114))))
(assert (not (and (and (= (x68 x114 x23) x111) (= x114 (x68 x24 x23))) (= (x68 x111 x23) x53))))
(assert (and (or (= (x68 (x68 x53 x53) x53) x53) (or (= x114 (x68 (x68 x53 x114) x53)) (or (= x24 (x68 (x68 x53 x24) x53)) (or (= (x68 (x68 x53 x23) x53) x23) (= (x68 (x68 x53 x111) x53) x111))))) (and (and (or (or (or (or (= x111 (x68 (x68 x24 x111) x24)) (= x23 (x68 (x68 x24 x23) x24))) (= x24 (x68 (x68 x24 x24) x24))) (= (x68 (x68 x24 x114) x24) x114)) (= (x68 (x68 x24 x53) x24) x53)) (and (or (= x53 (x68 (x68 x23 x53) x23)) (or (= (x68 (x68 x23 x114) x23) x114) (or (= (x68 (x68 x23 x24) x23) x24) (or (= (x68 (x68 x23 x23) x23) x23) (= (x68 (x68 x23 x111) x23) x111))))) (or (or (= x114 (x68 (x68 x111 x114) x111)) (or (= (x68 (x68 x111 x24) x111) x24) (or (= x23 (x68 (x68 x111 x23) x111)) (= x111 (x68 (x68 x111 x111) x111))))) (= x53 (x68 (x68 x111 x53) x111))))) (or (or (= x114 (x68 (x68 x114 x114) x114)) (or (= (x68 (x68 x114 x24) x114) x24) (or (= (x68 (x68 x114 x111) x114) x111) (= x23 (x68 (x68 x114 x23) x114))))) (= x53 (x68 (x68 x114 x53) x114))))))
(assert (not (and (and (= (x68 x23 x111) x114) (= (x68 x53 x111) x23)) (= x24 (x68 x114 x111)))))
(assert (not (and (and (= x24 (x68 x111 x23)) (= x111 (x68 x53 x23))) (= (x68 x24 x23) x114))))
(assert (not (and (and (= (x68 x53 x24) x114) (= x53 (x68 x111 x24))) (= x23 (x68 x114 x24)))))
(assert (not (and (= (x68 x53 x23) x111) (and (= (x68 x114 x23) x53) (= x114 (x68 x24 x23))))))
(assert (not (and (and (= (x68 x23 x53) x111) (= x24 (x68 x111 x53))) (= x114 (x68 x24 x53)))))
(assert (not (and (= (x68 x24 x114) x111) (and (= x53 (x68 x23 x114)) (= (x68 x53 x114) x24)))))
(assert (not (and (and (= (x68 x111 x24) x114) (= (x68 x53 x24) x111)) (= x23 (x68 x114 x24)))))
(assert (not (and (= (x68 x114 x23) x111) (and (= x53 (x68 x24 x23)) (= (x68 x53 x23) x114)))))
(assert (not (and (= x111 (x68 x23 x24)) (and (= x53 (x68 x114 x24)) (= (x68 x53 x24) x23)))))
(assert (not (and (= (x68 x111 x53) x24) (and (= (x68 x114 x53) x23) (= x111 (x68 x23 x53))))))
(assert (not (and (= (x68 x24 x23) x53) (and (= (x68 x111 x23) x24) (= (x68 x114 x23) x111)))))
(assert (not (and (and (= x111 (x68 x24 x114)) (= x24 (x68 x23 x114))) (= x53 (x68 x111 x114)))))
(assert (not (and (and (= (x68 x111 x23) x53) (= (x68 x53 x23) x114)) (= x24 (x68 x114 x23)))))
(assert (not (and (= (x68 x53 x111) x114) (and (= x53 (x68 x24 x111)) (= x24 (x68 x23 x111))))))
(assert (not (and (= (x68 x111 x23) x114) (and (= (x68 x24 x23) x111) (= x24 (x68 x53 x23))))))
(assert (not (and (and (= x111 (x68 x24 x23)) (= (x68 x111 x23) x53)) (= (x68 x53 x23) x114))))
(assert (not (and (= x114 (x68 x23 x111)) (and (= x23 (x68 x24 x111)) (= (x68 x53 x111) x24)))))
(assert (not (and (= (x68 x114 x111) x53) (and (= x114 (x68 x24 x111)) (= x24 (x68 x23 x111))))))
(assert (not (and (and (= (x68 x53 x111) x23) (= (x68 x24 x111) x53)) (= (x68 x23 x111) x114))))
(assert (not (and (= (x68 x24 x114) x53) (and (= x23 (x68 x111 x114)) (= x24 (x68 x23 x114))))))
(assert (not (and (and (= (x68 x53 x111) x24) (= (x68 x23 x111) x53)) (= (x68 x24 x111) x114))))
(assert (not (and (and (= (x68 x114 x53) x23) (= x114 (x68 x24 x53))) (= (x68 x23 x53) x111))))
(assert (not (and (= (x68 x114 x53) x111) (and (= (x68 x24 x53) x114) (= (x68 x23 x53) x24)))))
(assert (let ((x6 (x68 x111 x24)) (x75 (x68 x114 x111)) (x121 (x68 x24 x111)) (x113 (x68 x111 x53)) (x133 (x68 x23 x114)) (x154 (x68 x53 x114)) (x41 (not (= x53 (x68 x53 x53)))) (x10 (x68 x111 x23)) (x22 (x68 x24 x114)) (x102 (x68 x114 x24)) (x92 (not (= x24 (x68 x24 x24)))) (x138 (x68 x114 x23)) (x136 (not (= x114 (x68 x114 x114)))) (x129 (x68 x53 x111)) (x139 (x68 x114 x53)) (x144 (x68 x23 x53)) (x99 (x68 x23 x24)) (x112 (x68 x23 x111)) (x117 (x68 x53 x24)) (x28 (x68 x24 x23)) (x118 (not (= (x68 x111 x111) x111))) (x146 (x68 x24 x53)) (x33 (x68 x111 x114)) (x44 (x68 x53 x23)) (x2 (not (= (x68 x23 x23) x23)))) (or (and (and (and (not (= x114 x154)) (and (not (= x24 x117)) (and (not (= x129 x111)) (not (= x23 x44))))) x41) (and x41 (and (and (and (not (= x144 x23)) (not (= x111 x113))) (not (= x146 x24))) (not (= x139 x114))))) (or (and (and (not (= x139 x53)) (and x136 (and (not (= x24 x102)) (and (not (= x138 x23)) (not (= x111 x75)))))) (and (and x136 (and (and (not (= x111 x33)) (not (= x133 x23))) (not (= x22 x24)))) (not (= x53 x154)))) (or (and (and (and (and x92 (and (not (= x28 x23)) (not (= x121 x111)))) (not (= x114 x22))) (not (= x53 x146))) (and (and (not (= x114 x102)) (and x92 (and (not (= x23 x99)) (not (= x111 x6))))) (not (= x117 x53)))) (or (and (and (not (= x53 x44)) (and (not (= x138 x114)) (and (and (not (= x10 x111)) x2) (not (= x28 x24))))) (and (and (not (= x114 x133)) (and (and (not (= x111 x112)) x2) (not (= x99 x24)))) (not (= x53 x144)))) (and (and (not (= x53 x113)) (and (and (not (= x6 x24)) (and x118 (not (= x10 x23)))) (not (= x33 x114)))) (and (not (= x53 x129)) (and (not (= x75 x114)) (and (not (= x24 x121)) (and x118 (not (= x112 x23)))))))))))))
(assert (not (and (and (= (x68 x53 x23) x111) (= x114 (x68 x111 x23))) (= (x68 x114 x23) x24))))
(assert (not (and (= (x68 x53 x111) x114) (and (= x53 (x68 x23 x111)) (= (x68 x24 x111) x23)))))
(assert (not (and (and (= (x68 x53 x114) x23) (= (x68 x23 x114) x111)) (= x24 (x68 x111 x114)))))
(assert (not (and (and (= x114 (x68 x53 x23)) (= x111 (x68 x114 x23))) (= x24 (x68 x111 x23)))))
(assert (not (and (and (= (x68 x24 x111) x23) (= (x68 x23 x111) x114)) (= x53 (x68 x114 x111)))))
(assert (not (and (and (= (x68 x111 x53) x24) (= (x68 x24 x53) x23)) (= (x68 x23 x53) x114))))
(assert (not (and (= x53 (x68 x23 x111)) (and (= (x68 x114 x111) x23) (= x114 (x68 x24 x111))))))
(assert (let ((x136 (x68 x23 x114)) (x28 (x68 x111 x111)) (x2 (x68 x23 x23)) (x121 (x68 x24 x111)) (x146 (x68 x114 x114)) (x112 (x68 x111 x23)) (x99 (x68 x53 x23)) (x44 (x68 x23 x53)) (x129 (x68 x111 x53)) (x144 (x68 x111 x114)) (x154 (x68 x114 x53)) (x117 (x68 x24 x53)) (x33 (x68 x23 x24)) (x102 (x68 x53 x24)) (x10 (x68 x24 x23)) (x118 (x68 x114 x23)) (x139 (x68 x53 x114)) (x133 (x68 x53 x111)) (x22 (x68 x111 x24)) (x113 (x68 x24 x114)) (x41 (x68 x53 x53)) (x138 (x68 x24 x24)) (x92 (x68 x114 x111)) (x6 (x68 x23 x111)) (x75 (x68 x114 x24))) (and (and (and (or (= (x68 x102 x102) x53) (or (= (x68 x75 x75) x114) (or (= x24 (x68 x138 x138)) (or (= x111 (x68 x22 x22)) (= x23 (x68 x33 x33)))))) (and (or (= x53 (x68 x133 x133)) (or (or (or (= x23 (x68 x6 x6)) (= x111 (x68 x28 x28))) (= (x68 x121 x121) x24)) (= (x68 x92 x92) x114))) (or (or (= x114 (x68 x118 x118)) (or (or (= (x68 x112 x112) x111) (= (x68 x2 x2) x23)) (= x24 (x68 x10 x10)))) (= (x68 x99 x99) x53)))) (or (= (x68 x139 x139) x53) (or (or (or (= x23 (x68 x136 x136)) (= (x68 x144 x144) x111)) (= x24 (x68 x113 x113))) (= (x68 x146 x146) x114)))) (or (or (= x114 (x68 x154 x154)) (or (= x24 (x68 x117 x117)) (or (= x23 (x68 x44 x44)) (= (x68 x129 x129) x111)))) (= (x68 x41 x41) x53)))))
(assert (not (and (= x24 (x68 x53 x111)) (and (= (x68 x23 x111) x53) (= (x68 x114 x111) x23)))))
(assert (not (and (and (= (x68 x111 x114) x53) (= (x68 x24 x114) x111)) (= x23 (x68 x53 x114)))))
(assert (not (and (= (x68 x114 x23) x53) (and (= (x68 x24 x23) x111) (= (x68 x111 x23) x114)))))
(assert (not (and (= x111 (x68 x23 x24)) (and (= x114 (x68 x53 x24)) (= x23 (x68 x114 x24))))))
(assert (not (and (and (= (x68 x23 x114) x53) (= (x68 x53 x114) x111)) (= (x68 x111 x114) x24))))
(assert (not (and (and (= (x68 x114 x53) x24) (= (x68 x111 x53) x114)) (= (x68 x24 x53) x23))))
(assert (not (and (= x23 (x68 x114 x111)) (and (= (x68 x24 x111) x114) (= (x68 x53 x111) x24)))))
(check-sat)
(exit)
